SECTION Graph
Nodes 294
Edges 568
E 1 268 7
E 1 269 5
E 2 3 14
E 2 270 5
E 3 4 1
E 3 271 5
E 4 272 5
E 5 6 1
E 6 7 14
E 7 8 1
E 8 87 7
E 9 10 1
E 9 244 7
E 9 251 1
E 9 269 18
E 10 11 14
E 10 254 1
E 10 270 18
E 11 12 1
E 11 265 1
E 11 271 18
E 12 267 1
E 12 272 18
E 13 14 1
E 13 194 7
E 13 208 1
E 14 15 14
E 14 213 1
E 15 16 1
E 15 238 1
E 16 242 1
E 17 18 1
E 17 257 10
E 17 261 7
E 18 19 14
E 18 258 10
E 19 20 1
E 19 266 18
E 20 268 18
E 21 22 1
E 21 211 18
E 21 230 7
E 21 249 3
E 22 23 14
E 22 216 18
E 22 250 3
E 23 24 1
E 23 240 18
E 23 263 3
E 24 244 18
E 24 264 3
E 24 269 7
E 25 26 1
E 25 171 19
E 25 188 7
E 25 201 1
E 26 27 14
E 26 176 19
E 26 203 1
E 27 28 1
E 27 193 19
E 27 231 1
E 28 197 19
E 28 233 1
E 28 246 7
E 29 30 1
E 29 143 22
E 29 165 1
E 30 31 14
E 30 167 1
E 31 32 1
E 31 189 1
E 32 190 1
E 33 34 1
E 33 236 7
E 33 245 3
E 34 35 14
E 34 247 3
E 35 36 1
E 35 259 3
E 36 261 3
E 37 38 1
E 37 184 14
E 37 199 3
E 37 210 2
E 38 39 14
E 38 200 3
E 38 215 2
E 39 40 1
E 39 228 3
E 39 239 2
E 40 230 3
E 40 243 2
E 40 249 7
E 41 42 1
E 41 153 14
E 41 163 1
E 41 166 1
E 42 43 14
E 42 164 1
E 42 168 1
E 43 44 1
E 43 187 1
E 43 192 3
E 44 188 1
E 44 196 3
E 44 201 7
E 45 46 1
E 45 115 30
E 45 141 1
E 45 146 3
E 46 47 14
E 46 143 1
E 46 149 3
E 47 48 1
E 47 161 3
E 48 162 3
E 48 165 7
E 49 50 1
E 49 204 1
E 50 206 1
E 50 221 6
E 51 52 1
E 51 224 6
E 51 234 1
E 52 236 1
E 53 54 2
E 53 182 10
E 53 186 6
E 53 217 10
E 54 184 10
E 54 209 6
E 54 219 10
E 55 56 1
E 55 157 12
E 56 57 14
E 56 159 12
E 57 58 1
E 57 173 12
E 58 177 12
E 58 202 7
E 59 60 1
E 59 127 20
E 59 157 11
E 60 61 14
E 60 130 20
E 60 159 11
E 61 62 1
E 61 138 20
E 61 173 11
E 62 140 20
E 62 177 11
E 62 180 14
E 63 64 1
E 63 116 7
E 63 122 1
E 63 125 2
E 64 65 14
E 64 124 1
E 64 128 2
E 65 66 1
E 65 134 1
E 65 137 2
E 66 136 1
E 66 139 2
E 66 152 14
E 67 68 1
E 67 105 4
E 68 69 14
E 68 107 4
E 69 70 1
E 69 112 1
E 70 115 1
E 70 141 30
E 71 72 1
E 71 96 7
E 71 102 2
E 71 106 1
E 72 73 14
E 72 104 2
E 72 108 1
E 73 74 1
E 73 113 2
E 73 118 1
E 74 116 2
E 74 120 1
E 74 125 7
E 75 76 1
E 75 91 1
E 76 77 14
E 76 92 1
E 77 78 1
E 77 97 1
E 78 98 1
E 78 105 7
E 79 80 1
E 79 89 1
E 80 81 14
E 80 90 1
E 81 82 1
E 81 95 1
E 82 96 1
E 82 106 7
E 83 84 1
E 83 87 19
E 84 85 14
E 84 88 19
E 85 86 1
E 85 93 19
E 86 91 7
E 86 94 19
E 87 88 1
E 87 89 3
E 88 90 3
E 88 93 14
E 89 90 1
E 90 95 14
E 91 92 1
E 91 99 18
E 92 97 14
E 92 101 18
E 93 94 1
E 93 95 3
E 94 96 3
E 94 100 7
E 95 96 1
E 97 98 1
E 97 109 18
E 98 111 18
E 99 100 1
E 99 101 1
E 100 102 1
E 100 103 1
E 101 103 1
E 101 109 14
E 102 104 1
E 103 104 1
E 103 110 14
E 104 113 14
E 105 107 1
E 105 121 19
E 106 108 1
E 107 117 14
E 107 123 19
E 108 118 14
E 109 110 1
E 109 111 1
E 110 113 1
E 110 114 1
E 111 114 1
E 111 121 7
E 112 115 1
E 112 117 3
E 113 116 1
E 114 116 1
E 114 122 7
E 115 119 3
E 117 119 1
E 117 133 19
E 118 120 1
E 119 126 7
E 119 135 19
E 120 127 7
E 121 122 1
E 121 123 1
E 122 124 1
E 123 124 1
E 123 133 14
E 124 134 14
E 125 127 1
E 125 128 1
E 126 129 1
E 127 130 1
E 128 130 1
E 128 137 14
E 129 131 6
E 130 138 14
E 131 132 2
E 131 151 20
E 132 146 14
E 132 153 20
E 133 134 1
E 133 135 1
E 134 136 1
E 135 136 1
E 135 163 30
E 136 142 7
E 137 138 1
E 137 139 1
E 138 140 1
E 139 140 1
E 139 145 7
E 140 147 7
E 141 143 1
E 142 144 1
E 144 151 6
E 145 148 1
E 146 149 1
E 146 163 19
E 147 150 1
E 148 154 6
E 149 161 14
E 149 164 19
E 150 156 6
E 151 152 1
E 151 153 2
E 152 154 2
E 152 155 2
E 153 155 1
E 154 156 1
E 154 158 2
E 155 158 2
E 155 166 14
E 156 160 2
E 156 179 18
E 157 159 1
E 158 160 1
E 158 170 14
E 159 173 14
E 160 174 14
E 160 181 18
E 161 162 1
E 161 187 19
E 162 171 7
E 162 188 19
E 163 164 1
E 164 187 14
E 165 167 1
E 165 169 2
E 166 168 1
E 166 170 2
E 167 172 2
E 167 189 14
E 168 175 2
E 169 171 1
E 169 172 1
E 170 174 1
E 170 175 1
E 171 176 1
E 172 176 1
E 172 191 14
E 173 177 1
E 174 178 1
E 174 199 18
E 175 178 1
E 175 192 14
E 176 193 14
E 177 185 7
E 178 195 14
E 178 200 18
E 179 180 2
E 179 181 2
E 180 182 1
E 180 183 2
E 181 183 2
E 181 199 14
E 182 184 2
E 183 184 1
E 185 186 1
E 185 202 12
E 186 205 12
E 187 188 1
E 189 190 1
E 189 191 2
E 190 194 2
E 191 193 1
E 191 194 1
E 192 195 1
E 192 196 1
E 193 197 1
E 194 197 1
E 195 198 1
E 195 228 18
E 196 198 1
E 196 207 7
E 197 208 7
E 198 211 7
E 198 230 18
E 199 200 1
E 200 228 14
E 201 203 1
E 201 207 3
E 202 204 1
E 202 205 1
E 203 212 3
E 203 231 14
E 204 206 1
E 205 206 1
E 205 218 6
E 206 220 6
E 207 211 1
E 207 212 1
E 208 213 1
E 208 246 19
E 209 214 1
E 209 227 10
E 210 215 1
E 210 225 8
E 211 216 1
E 212 216 1
E 212 237 14
E 213 238 14
E 213 248 19
E 214 225 7
E 214 229 10
E 215 226 8
E 215 239 14
E 216 240 14
E 217 218 2
E 217 219 2
E 218 220 1
E 218 222 2
E 219 222 2
E 219 227 6
E 220 221 1
E 220 223 2
E 221 224 2
E 222 223 1
E 222 232 6
E 223 224 1
E 223 234 6
E 225 226 1
E 225 245 10
E 226 247 10
E 226 252 14
E 227 229 1
E 227 232 2
E 228 230 1
E 229 235 2
E 229 245 7
E 231 233 1
E 231 237 3
E 232 234 1
E 232 235 1
E 233 241 3
E 234 236 1
E 235 236 1
E 237 240 1
E 237 241 1
E 238 242 1
E 238 260 19
E 239 243 1
E 239 252 8
E 240 244 1
E 241 244 1
E 241 251 7
E 242 262 19
E 243 253 7
E 243 255 8
E 245 247 1
E 246 248 1
E 246 251 4
E 247 259 14
E 248 254 4
E 248 260 14
E 249 250 1
E 249 253 2
E 250 256 2
E 250 263 14
E 251 254 1
E 252 255 1
E 252 259 10
E 253 256 1
E 253 257 8
E 254 265 14
E 255 257 7
E 255 261 10
E 256 258 8
E 256 266 14
E 257 258 1
E 259 261 1
E 260 262 1
E 260 265 4
E 262 267 4
E 263 264 1
E 263 266 2
E 264 268 2
E 265 267 1
E 266 268 1
E 269 270 1
E 270 271 14
E 271 272 1
E 1 273 100000
E 2 273 100000
E 3 273 100000
E 4 273 100000
E 5 274 100000
E 6 274 100000
E 7 274 100000
E 8 274 100000
E 9 275 100000
E 10 275 100000
E 11 275 100000
E 12 275 100000
E 13 276 100000
E 14 276 100000
E 15 276 100000
E 16 276 100000
E 17 277 100000
E 18 277 100000
E 19 277 100000
E 20 277 100000
E 21 278 100000
E 22 278 100000
E 23 278 100000
E 24 278 100000
E 25 279 100000
E 26 279 100000
E 27 279 100000
E 28 279 100000
E 29 280 100000
E 30 280 100000
E 31 280 100000
E 32 280 100000
E 33 281 100000
E 34 281 100000
E 35 281 100000
E 36 281 100000
E 37 282 100000
E 38 282 100000
E 39 282 100000
E 40 282 100000
E 41 283 100000
E 42 283 100000
E 43 283 100000
E 44 283 100000
E 45 284 100000
E 46 284 100000
E 47 284 100000
E 48 284 100000
E 49 285 100000
E 50 285 100000
E 51 285 100000
E 52 285 100000
E 53 286 100000
E 54 286 100000
E 55 287 100000
E 56 287 100000
E 57 287 100000
E 58 287 100000
E 59 288 100000
E 60 288 100000
E 61 288 100000
E 62 288 100000
E 63 289 100000
E 64 289 100000
E 65 289 100000
E 66 289 100000
E 67 290 100000
E 68 290 100000
E 69 290 100000
E 70 290 100000
E 71 291 100000
E 72 291 100000
E 73 291 100000
E 74 291 100000
E 75 292 100000
E 76 292 100000
E 77 292 100000
E 78 292 100000
E 79 293 100000
E 80 293 100000
E 81 293 100000
E 82 293 100000
E 83 294 100000
E 84 294 100000
E 85 294 100000
E 86 294 100000
END

SECTION Terminals
Terminals 22
T 273
T 274
T 275
T 276
T 277
T 278
T 279
T 280
T 281
T 282
T 283
T 284
T 285
T 286
T 287
T 288
T 289
T 290
T 291
T 292
T 293
T 294
END

SECTION Tree Decomposition
c We do not guarantee that this tree decomposition has minimum width.
s td 65 18 294
b 1 37 66 105 123 134 154 160 199 215 252 261
b 2 25 26 44 178 192 193 194 37 66 105 123 134 154 160 199 215 252 261
b 3 59 130 137 37 66 105 123 134 154 160 199 215 252 261
b 4 203 237 244 268 269 37 199 215 252 261 25 26 44 178 192 193 194
b 5 54 204 205 217 37 66 154 160 199 215 252 261 59 130 137
b 6 45 70 149 187 66 105 123 134 154 160 199 25 26 44 178 192 193 194
b 7 71 91 100 108 66 105 123 134 59 130 137
b 8 21 216 243 249 37 199 215 252 261 25 44 178 192 203 237 244 268 269
b 9 131 135 66 105 123 134 154 160 199 44 178 192 45 70 149 187
b 10 251 254 265 267 25 26 193 194 203 237 244 268 269
b 11 104 110 111 66 105 123 134 59 130 137 71 91 100 108
b 12 53 62 138 37 66 154 160 199 59 130 137 54 204 205 217
b 13 227 235 236 37 215 252 261 54 204 205 217
b 14 151 66 134 154 160 199 44 178 192 45 149 187 131 135
b 15 143 165 172 25 26 44 193 194 45 70 149 187
b 16 14 208 213 248 25 26 193 194 203 237 244 251 254 265 267
b 17 114 116 125 66 105 123 134 59 130 137 71 108 104 110 111
b 18 41 153 168 66 154 160 199 44 178 192 45 149 187 131 135 151
b 19 19 256 252 261 237 244 268 269 21 216 243 249
b 20 198 228 37 199 215 252 25 44 178 192 203 237 21 216 243 249
b 21 87 71 91 100 108
b 22 156 37 66 154 160 199 137 54 53 62 138
b 23 88 95 96 71 91 100 108 87
b 24 51 220 224 54 204 205 217 227 235 236
b 25 245 247 37 215 252 261 54 227 235 236
b 26 159 173 59 130 204 205 53 62 138
b 27 4 10 271 244 268 269 251 254 265 267
b 28 161 162 25 26 44 193 45 149 187 143 165 172
b 29 112 117 105 123 134 45 70 131 135
b 30 75 76 77 78 92 97 98 99 101 103 109 292 105 91 100 104 110 111
b 31 22 23 24 240 250 263 264 266 278 237 244 268 269 21 216 249 19 256
b 32 152 155 158 166 170 174 175 66 154 160 199 178 192 151 41 153 168
b 33 72 73 74 113 118 120 127 291 59 130 71 108 104 110 116 125
b 34 27 28 197 231 233 241 246 279 25 26 193 194 203 237 244 251 208 248
b 35 79 80 81 82 89 90 106 293 71 108 87 88 95 96
b 36 55 56 57 58 157 177 185 186 202 287 59 204 205 53 62 159 173
b 37 29 30 31 32 167 189 190 191 280 193 194 143 165 172
b 38 13 15 16 238 242 260 262 276 194 265 267 14 208 213 248
b 39 63 64 65 121 122 124 128 289 66 105 123 134 130 137 111 114 116 125
b 40 38 39 40 200 230 239 282 37 199 215 252 178 21 243 249 198 228
b 41 83 84 85 86 93 94 294 91 100 87 88 95 96
b 42 179 180 181 182 183 184 37 160 199 54 53 62 156
b 43 218 219 222 223 232 234 54 205 217 227 235 236 51 220 224
b 44 209 210 214 225 226 229 37 215 252 54 227 235 245 247
b 45 9 11 12 272 275 244 269 251 265 267 4 10 271
b 46 67 68 69 107 290 105 123 70 112 117
b 47 133 123 134 135 117
b 48 286 54 53
b 49 141 45 70 143
b 50 42 43 132 146 163 164 283 44 192 45 149 187 131 135 41 153 168
b 51 17 18 20 253 255 257 258 277 252 261 268 243 249 19 256
b 52 60 61 288 59 130 62 138 159 173
b 53 195 178 192 198 228
b 54 5 6 7 8 274 87
b 55 139 140 145 147 148 150 66 154 137 62 138 156
b 56 196 201 207 211 212 25 44 192 203 237 21 216 198
b 57 49 50 52 206 221 285 204 205 236 51 220 224
b 58 33 34 35 36 259 281 252 261 236 245 247
b 59 188 25 44 187 162
b 60 1 2 3 270 273 268 269 4 10 271
b 61 46 47 48 284 45 149 143 165 161 162
b 62 169 171 176 25 26 193 165 172 162
b 63 136 142 144 66 134 135 151
b 64 115 119 126 129 45 70 131 135 112 117
b 65 102 71 100 104
2 1
3 1
4 2
5 3
6 2
7 3
8 4
9 6
10 4
11 7
12 5
13 5
14 9
15 6
16 10
17 11
18 14
19 8
20 8
21 7
22 12
23 21
24 13
25 13
26 12
27 10
28 15
29 9
30 11
31 19
32 18
33 17
34 16
35 23
36 26
37 15
38 16
39 17
40 20
41 23
42 22
43 24
44 25
45 27
46 29
47 29
48 12
49 15
50 18
51 19
52 26
53 20
54 21
55 22
56 20
57 24
58 25
59 28
60 27
61 28
62 28
63 14
64 29
65 11
END

EOF
